
&CONTROL
 calculation = 'relax',
 restart_mode = 'from_scratch',
 prefix=MOSE2_0_0,
 pseudo_dir='/afs/crc.nd.edu/user/j/jencomen/espresso/pseudo/',
 outdir='./',
 tstress=.true.,
 tprnfor=.true.,
/
&SYSTEM
 ibrav=4,
 celldm(1)=6.1366080867d0,
 celldm(3)=3.9169849464064526d0,
 nat=6,
 ntyp=2,
 ecutwfc=70,
 ecutrho=700,
 occupations = 'fixed',
/
&ELECTRONS
 conv_thr = 1.0D-8,
 mixing_mode = 'plain',
 mixing_beta = 0.7d0,
 diagonalization = 'cg',
/
&IONS
 ion_dynamics='bfgs',
/
&CELL
 cell_dynamics = 'bfgs',
 press=0.1d0,
/
ATOMIC_SPECIES
Mo 95.95d0  Mo_LDA.UPF
Se 78.971d0 Se_LDA.UPF

ATOMIC_POSITIONS crystal
 Mo  0.33333d0  0.66667d0  0.25000d0
 Mo  0.66667d0  0.33333d0  0.75000d0
 Se  0.66667d0  0.33333d0  0.12100d0
 Se  0.66667d0  0.33333d0  0.37900d0
 Se  0.33333d0  0.66667d0  0.62100d0
 Se  0.33333d0  0.66667d0  0.87900d0
K_POINTS automatic
  10 10 10 0 0 0

