! 2x2 supercell of a single-layer MoSe2.
! A cobalt dopant has been also introduced
! be careful with the occupations keyword

&CONTROL
 calculation = 'relax',
 restart_mode = 'from_scratch',
 prefix=mose2_co,
 pseudo_dir='/afs/crc.nd.edu/user/j/jencomen/espresso/pseudo/',
 outdir='./',
 tstress=.true.,
 tprnfor=.true.,
/
&SYSTEM
 ibrav=4,
 celldm(1)=12.274692437502008d0,
 celldm(3)=3.079061878570261d0,
 nat=12,
 ntyp=3,
 ecutwfc=70,
 ecutrho=700,
 occupations = 'smearing', smearing='gaussian', degauss=0.01,
/
&ELECTRONS
 conv_thr = 1.0D-8,
 mixing_mode = 'plain',
 mixing_beta = 0.7d0,
 diagonalization = 'cg',
/
&IONS
 ion_dynamics='bfgs',
/
&CELL
 cell_dynamics = 'bfgs',
 press=0.1d0,
/
ATOMIC_SPECIES
Mo 95.95d0  Mo_LDA.UPF
Se 78.971d0 Se_LDA.UPF
Co 58.933d0 Co_LDA.UPF

ATOMIC_POSITIONS angstrom
Co    0.000000d0    1.875085d0    3.183908d0
Mo   -1.623871d0    4.687712d0    3.183908d0
Mo    3.247742d0    1.875085d0    3.183908d0
Mo    1.623871d0    4.687712d0    3.183908d0
Se    1.623871d0    0.937542d0    4.826804d0
Se   -0.000000d0    3.750169d0    4.826804d0
Se    4.871613d0    0.937542d0    4.826804d0
Se    3.247742d0    3.750169d0    4.826804d0
Se    1.623871d0    0.937542d0    1.541012d0
Se   -0.000000d0    3.750169d0    1.541012d0
Se    4.871613d0    0.937542d0    1.541012d0
Se    3.247742d0    3.750169d0    1.541012d0
K_POINTS automatic
  10 10 1 0 0 0

